
<<< setup


<<< generate

CPXPARAM_Simplex_Tolerances_Optimality           0.001
CPXPARAM_Simplex_Tolerances_Feasibility          0.001
CPXPARAM_TimeLimit                               7200
CPXPARAM_Threads                                 8
CPXPARAM_MIP_Tolerances_AbsMIPGap                0.001
CPXPARAM_MIP_Tolerances_MIPGap                   0.001
CPXPARAM_MIP_Tolerances_Integrality              0.001
CPXPARAM_MIP_Display                             4
CPXPARAM_MIP_PolishAfter_Solutions               1
Tried aggregator 1 time.
MIQCP Presolve eliminated 2 rows and 2 columns.
Reduced MIQCP has 135 rows, 519 columns, and 8781 nonzeros.
Reduced MIQCP has 0 binaries, 64 generals, 0 SOSs, and 0 indicators.
Reduced MIQCP has 4 quadratic constraints.
Presolve time = 0.00 sec. (3.04 ticks)
MIP emphasis: balance optimality and feasibility.
MIP search method: dynamic search.
Parallel mode: deterministic, using up to 8 threads.
Dual infeasible due to empty column 'z(1)'.
Presolve time = 0.00 sec. (0.35 ticks)
Tried aggregator 1 time.
LP Presolve eliminated 131 rows and 131 columns.
Aggregator did 2 substitutions.
Reduced LP has 2 rows, 386 columns, and 258 nonzeros.
Presolve time = 0.00 sec. (0.44 ticks)
Initializing dual steep norms . . .

Iteration log . . .
Iteration:     1    Scaled infeas =             0.000000
Root relaxation solution time = 0.00 sec. (1.28 ticks)

        Nodes                                         Cuts/
   Node  Left     Objective  IInf  Best Integer    Best Bound    ItCnt     Gap

      0     0    12090.9070    64                  12090.9070       19         
*     0+    0                        12164.6555    12090.9070             0.61%
Found incumbent of value 12164.655474 after 0.16 sec. (58.94 ticks)

Starting condition for polishing reached (PolishAfterIntSol).
Starting solution polishing.

      0     2    12090.9070    64    12164.6555    12090.9070       37    0.61%
Elapsed time = 0.17 sec. (100.13 ticks, tree = 0.01 MB, solutions = 1)
*     1+    1                        12164.5945    12090.9070             0.61%
Found incumbent of value 12164.594497 after 0.25 sec. (226.88 ticks)
      1     3    12094.5733    63    12164.5945    12090.9070       54    0.61%
      2     3    12094.9369    63    12164.5945    12090.9070       52    0.61%
      3     4    12097.9850    61    12164.5945    12090.9070       68    0.61%
      4     4    12098.6023    62    12164.5945    12090.9070       70    0.61%
      5     5    12098.3220    62    12164.5945    12094.5733       84    0.58%
      6     5    12099.0399    61    12164.5945    12094.5733       83    0.58%
      7     7    12103.4138    61    12164.5945    12094.9369      116    0.57%
      8     8    12101.6694    61    12164.5945    12094.9369      129    0.57%
      9     6    12101.2558    61    12164.5945    12094.9369       99    0.57%
     11     7    12101.8027    61    12164.5945    12094.9369      116    0.57%
Elapsed time = 734.03 sec. (1487353.16 ticks, tree = 0.01 MB, solutions = 2)
     12     8    12103.0551    61    12164.5945    12094.9369      130    0.57%
     13     9    12102.3155    61    12164.5945    12097.9850      143    0.55%
     14     9    12103.8111    61    12164.5945    12097.9850      143    0.55%
     15    10    12106.2588    59    12164.5945    12097.9850      161    0.55%
     16    12    12104.1056    59    12164.5945    12097.9850      192    0.55%
     17    15    12105.8608    60    12164.5945    12099.0399      245    0.54%
     18    14    12104.6699    60    12164.5945    12099.0399      226    0.54%
     19    11    12104.4988    60    12164.5945    12099.0399      178    0.54%
     20    16    12105.1629    59    12164.5945    12099.0399      256    0.54%
     21    17    12106.6357    60    12164.5945    12101.2558      272    0.52%
Elapsed time = 1072.86 sec. (1997883.87 ticks, tree = 0.01 MB, solutions = 2)
     22    13    12105.5869    60    12164.5945    12101.2558      210    0.52%
     23    18    12109.1637    59    12164.5945    12101.2558      288    0.52%
     24    19    12107.0016    59    12164.5945    12101.2558      304    0.52%
     25    20    12108.9159    59    12164.5945    12101.2558      324    0.52%
     26    21    12107.4958    59    12164.5945    12101.2558      341    0.52%
     27    22    12107.4709    59    12164.5945    12101.2558      359    0.52%
     28    23    12108.0633    59    12164.5945    12101.2558      375    0.52%
     29    24    12109.6173    59    12164.5945    12101.2558      392    0.52%
     30    25    12108.5638    59    12164.5945    12101.2558      410    0.52%
     31    26    12111.5021    57    12164.5945    12101.2558      427    0.52%
Elapsed time = 1689.00 sec. (2912059.52 ticks, tree = 0.01 MB, solutions = 2)
     32    31    12110.4036    57    12164.5945    12101.2558      512    0.52%
     33    27    12109.3438    58    12164.5945    12101.2558      444    0.52%
     34    28    12111.2254    58    12164.5945    12101.2558      463    0.52%
     35    29    12109.8198    58    12164.5945    12101.2558      478    0.52%
     36    32    12111.9405    58    12164.5945    12101.2558      530    0.52%
     37    30    12109.7983    58    12164.5945    12101.2558      496    0.52%
     38    33    12110.8890    58    12164.5945    12101.2558      547    0.52%
     39    36    12111.8861    57    12164.5945    12101.2558      598    0.52%
     40    34    12114.0532    57    12164.5945    12101.2558      564    0.52%
     41    37    12113.9248    57    12164.5945    12101.2558      617    0.52%
Elapsed time = 2012.66 sec. (3433330.58 ticks, tree = 0.01 MB, solutions = 2)
     42    38    12112.3235    57    12164.5945    12101.2558      633    0.52%
     43    35    12112.9502    57    12164.5945    12101.2558      581    0.52%
     44    39    12114.5669    57    12164.5945    12101.2558      652    0.52%
     45    40    12112.4155    57    12164.5945    12101.2558      670    0.52%
     46    41    12113.5109    57    12164.5945    12101.2558      688    0.52%
     47    43    12117.9718    57    12164.5945    12101.2558      724    0.52%
     48    42    12113.7732    56    12164.5945    12101.2558      706    0.52%
     49    46    12116.8782    57    12164.5945    12101.2558      777    0.52%
     50    44    12115.7887    56    12164.5945    12101.2558      743    0.52%
     51    45    12114.2187    56    12164.5945    12101.2558      759    0.52%
Elapsed time = 2362.77 sec. (3955734.94 ticks, tree = 0.01 MB, solutions = 2)
     52    47    12116.4405    56    12164.5945    12101.2558      796    0.52%
     53    48    12114.2922    56    12164.5945    12101.2558      813    0.52%
     54    49    12115.3858    56    12164.5945    12101.2558      831    0.52%
     55    50    12115.9370    56    12164.5945    12101.2558      849    0.52%
     56    51    12115.9834    55    12164.5945    12101.2558      868    0.52%
     57    53    12118.1527    55    12164.5945    12101.2558      905    0.52%
     58    52    12114.8357    56    12164.5945    12101.2558      885    0.52%
     59    54    12116.3614    55    12164.5945    12101.2558      923    0.52%
     60    55    12118.7329    55    12164.5945    12101.2558      942    0.52%
     61    56    12116.5763    55    12164.5945    12101.2558      960    0.52%
Elapsed time = 2710.67 sec. (4495984.02 ticks, tree = 0.01 MB, solutions = 2)
     62    57    12117.6744    55    12164.5945    12101.2558      978    0.52%
     63    59    12117.4662    54    12164.5945    12101.2558     1014    0.52%
     64    58    12118.1556    55    12164.5945    12101.2558      996    0.52%
     65    60    12119.6209    54    12164.5945    12101.2558     1033    0.52%
     66    61    12117.0500    55    12164.5945    12101.2558     1052    0.52%
     67    62    12117.8485    54    12164.5945    12101.2558     1072    0.52%
     68    63    12120.2066    54    12164.5945    12101.2558     1087    0.52%
     69    64    12118.0528    54    12164.5945    12101.2558     1106    0.52%
     70    65    12119.1495    54    12164.5945    12101.2558     1125    0.52%
     71    66    12119.3665    53    12164.5945    12101.2558     1145    0.52%
Elapsed time = 3288.42 sec. (5376020.91 ticks, tree = 0.01 MB, solutions = 2)
     72    68    12121.6706    53    12164.5945    12101.2558     1183    0.52%
     73    67    12119.6358    54    12164.5945    12101.2558     1164    0.52%
     74    70    12119.6833    53    12164.5945    12101.2558     1226    0.52%
     75    69    12118.5316    54    12164.5945    12101.2558     1203    0.52%
     76    71    12122.1866    53    12164.5945    12101.2558     1240    0.52%
     77    72    12120.0244    52    12164.5945    12101.2558     1256    0.52%
     78    73    12121.1254    53    12164.5945    12101.2558     1272    0.52%
     79    74    12120.4947    52    12164.5945    12101.2558     1290    0.52%
     80    75    12123.4140    52    12164.5945    12101.2558     1307    0.52%
     81    76    12121.5439    53    12164.5945    12101.2558     1324    0.52%
Elapsed time = 3652.36 sec. (5928240.38 ticks, tree = 0.02 MB, solutions = 2)
     82    77    12120.8129    52    12164.5945    12101.2558     1350    0.52%
     83    78    12120.4351    53    12164.5945    12101.2558     1369    0.52%
     84    79    12123.8633    52    12164.5945    12101.2558     1389    0.52%
     85    80    12121.1496    52    12164.5945    12101.2558     1412    0.52%
     86    81    12122.7981    52    12164.5945    12101.2558     1431    0.52%
     87    82    12122.1073    51    12164.5945    12101.2558     1455    0.52%
     88    83    12124.5475    51    12164.5945    12101.2558     1477    0.52%
     89    85    12122.3625    51    12164.5945    12101.2558     1511    0.52%
     90    84    12122.6702    52    12164.5945    12101.2558     1491    0.52%
     91    87    12124.9988    50    12164.5945    12101.2558     1552    0.52%
Elapsed time = 4027.39 sec. (6473271.73 ticks, tree = 0.02 MB, solutions = 2)
     92    86    12121.5629    52    12164.5945    12101.2558     1532    0.52%
     93    89    12123.9349    50    12164.5945    12101.2558     1590    0.52%
     94    88    12126.3551    52    12164.5945    12101.2558     1572    0.52%
     95    90    12123.4459    50    12164.5945    12101.2558     1612    0.52%
     96    93    12124.2905    51    12164.5945    12101.2558     1681    0.52%
     97    95    12123.1794    51    12164.5945    12101.2558     1724    0.52%
     99    96    12125.3423    50    12164.5945    12101.2558     1741    0.52%
    100    92    12123.1832    50    12164.5945    12101.2558     1654    0.52%
    101    94    12126.4101    50    12164.5945    12101.2558     1700    0.52%
    102    97    12122.8311    50    12164.5945    12101.2558     1766    0.52%
Elapsed time = 4626.97 sec. (7042802.11 ticks, tree = 0.02 MB, solutions = 2)
    103    98    12124.2778    49    12164.5945    12101.2558     1781    0.52%
    104    99    12125.6362    50    12164.5945    12101.2558     1804    0.52%
    107   103    12124.4722    48    12164.5945    12101.2558     1880    0.52%
    108   104    12135.6706    50    12164.5945    12101.2558     1902    0.52%
    110   105    12124.2348    50    12164.5945    12101.2558     1927    0.52%
    111   106    12124.8816    48    12164.5945    12101.2558     1945    0.52%
    112   108    12128.0812    48    12164.5945    12101.2558     1986    0.52%
    113   109    12125.3525    49    12164.5945    12101.2558     2004    0.52%
    115   112    12126.1733    49    12164.5945    12101.2558     2062    0.52%
    117   111    12127.2403    49    12164.5945    12101.2558     2043    0.52%
Elapsed time = 5034.88 sec. (7994550.85 ticks, tree = 0.02 MB, solutions = 2)
    118   113    12133.5173    50    12164.5945    12101.2558     2080    0.52%
    119   114    12125.5085    47    12164.5945    12101.2558     2096    0.52%
    120   115    12128.6555    47    12164.5945    12101.2558     2120    0.52%
    121   118    12127.3377    48    12164.5945    12101.2558     2181    0.52%
    122   116    12125.9526    48    12164.5945    12101.2558     2137    0.52%
    124   119    12127.0629    48    12164.5945    12101.2558     2198    0.52%
    125   121    12125.0664    49    12164.5945    12101.2558     2242    0.52%
    127   122    12126.1587    46    12164.5945    12101.2558     2258    0.52%
    128   124    12127.8975    47    12164.5945    12101.2558     2299    0.52%
    129   123    12129.6594    46    12164.5945    12101.2558     2278    0.52%
Elapsed time = 5659.97 sec. (8986880.21 ticks, tree = 0.03 MB, solutions = 2)
    130   128    12126.2274    48    12164.5945    12101.2558     2375    0.52%
    131   125    12126.5757    47    12164.5945    12101.2558     2314    0.52%
    133   127    12127.6819    47    12164.5945    12101.2558     2350    0.52%
    135   131    12128.4799    46    12164.5945    12101.2558     2433    0.52%
    136   134    12127.2220    46    12164.5945    12101.2558     2493    0.52%
    138   136    12128.3243    46    12164.5945    12101.2558     2530    0.52%
    141   135    12126.5095    46    12164.5945    12101.2558     2513    0.52%
    142   137    12129.5421    46    12164.5945    12101.2558     2547    0.52%
    143   140    12127.5323    44    12164.5945    12101.2558     2603    0.52%
    144   138    12129.0865    44    12164.5945    12101.2558     2566    0.52%
Elapsed time = 6291.77 sec. (9976114.60 ticks, tree = 0.03 MB, solutions = 2)
    145   143    12130.7039    44    12164.5945    12101.2558     2668    0.52%
    146   139    12127.8923    45    12164.5945    12101.2558     2587    0.52%
    147   142    12127.3774    46    12164.5945    12101.2558     2645    0.52%
    148   141    12129.4714    45    12164.5945    12101.2558     2626    0.52%
    149   144    12127.2347    45    12164.5945    12101.2558     2685    0.52%
    150   145    12130.1458    44    12164.5945    12101.2558     2703    0.52%
    151   146    12128.6997    43    12164.5945    12101.2558     2717    0.52%
    152   148    12131.2547    43    12164.5945    12101.2558     2759    0.52%
    153   149    12129.0497    44    12164.5945    12101.2558     2776    0.52%
    154   147    12129.7175    44    12164.5945    12101.2558     2736    0.52%
Elapsed time = 6646.78 sec. (10509191.60 ticks, tree = 0.03 MB, solutions = 2)
    155   151    12130.1511    44    12164.5945    12101.2558     2815    0.52%
    156   150    12127.9877    44    12164.5945    12101.2558     2800    0.52%
    157   152    12127.9841    44    12164.5945    12101.2558     2835    0.52%
    158   153    12130.7730    44    12164.5945    12101.2558     2855    0.52%
    159   154    12129.4374    42    12164.5945    12101.2558     2871    0.52%
    160   156    12129.7582    43    12164.5945    12101.2558     2901    0.52%
    161   155    12131.8452    42    12164.5945    12101.2558     2888    0.52%
    162   157    12136.1588    44    12164.5945    12101.2558     2916    0.52%
    163   158    12130.8553    43    12164.5945    12101.2558     2930    0.52%
    164   159    12128.6223    43    12164.5945    12101.2558     2949    0.52%
Elapsed time = 6982.59 sec. (11033002.64 ticks, tree = 0.04 MB, solutions = 2)
    165   160    12128.7581    43    12164.5945    12101.2558     2964    0.52%
    166   161    12137.2331    44    12164.5945    12101.2558     2980    0.52%

Root node processing (before b&c):
  Real time             =    0.16 sec. (58.96 ticks)
Parallel b&c, 8 threads:
  Real time             = 7199.86 sec. (11372770.67 ticks)
  Sync time (average)   =  308.47 sec.
  Wait time (average)   =    0.00 sec.
                          ------------
Total (root+branch&cut) = 7200.02 sec. (11372829.63 ticks)

<<< solve


OBJECTIVE: 12164.59
X*: [-3.1113 2.4723 -0.71971 2.481 -0.81952 2.4896 -0.91761 2.4981 -1.014 2.5064
     -1.1085 2.5145 -1.2014 2.5225 -1.2924 2.5303 -1.3817 2.538 -1.4691 2.5455
     -1.5548 2.5529 -1.6386 2.5601 -1.7207 2.5672 -1.801 2.5741 -1.8795 2.5808
     -1.9563 2.5874 -2.0312 2.5938 -2.1045 2.6001 -2.176 2.6063 -2.2457 2.6123
     -2.3138 2.6181 -2.3802 2.6238 -2.4449 2.6294 -2.508 2.6348 -2.5694 2.64
     -2.6293 2.6452 -2.6875 2.6502 -2.7443 2.655 -2.7994 2.6598 -2.8531 2.6644
     -2.9054 2.6688 -2.9561 2.6732] Z*: [-4 3 -3 3 -3 3 -3 3 -3 3 -3 3 -3 3 -3 3 -3 3 -3 3 -3 3 -3 3 -3 3 -4 3 -4 3
     -4 3 -4 3 -4 3 -4 3 -4 3 -4 3 -4 3 -4 3 -4 3 -4 3 -4 3 -4 3 -4 3 -4 3
     -4 3 -4 3 -4 3]
f*:12164.594490605

<<< post process


<<< done

